p edge 32 128
e 1 9
e 1 18
e 1 25
e 1 27
e 2 9
e 2 17
e 2 18
e 2 29
e 3 2
e 3 5
e 3 11
e 3 17
e 4 2
e 4 10
e 4 12
e 4 27
e 5 8
e 5 9
e 5 16
e 5 18
e 6 4
e 6 23
e 6 27
e 6 31
e 7 8
e 7 10
e 7 14
e 7 18
e 8 15
e 8 21
e 8 31
e 8 31
e 9 2
e 9 17
e 9 23
e 9 23
e 10 19
e 10 20
e 10 21
e 10 31
e 11 15
e 11 16
e 11 25
e 11 29
e 12 9
e 12 17
e 12 20
e 12 26
e 13 3
e 13 6
e 13 11
e 13 24
e 14 1
e 14 1
e 14 18
e 14 22
e 15 14
e 15 17
e 15 27
e 15 29
e 16 12
e 16 26
e 16 28
e 16 32
e 17 3
e 17 16
e 17 22
e 17 30
e 18 3
e 18 16
e 18 21
e 18 23
e 19 3
e 19 12
e 19 16
e 19 20
e 20 4
e 20 5
e 20 12
e 20 22
e 21 11
e 21 17
e 21 22
e 21 27
e 22 7
e 22 11
e 22 13
e 22 24
e 23 2
e 23 3
e 23 27
e 23 30
e 24 10
e 24 18
e 24 29
e 24 31
e 25 6
e 25 11
e 25 13
e 25 28
e 26 3
e 26 9
e 26 18
e 26 22
e 27 6
e 27 10
e 27 13
e 27 20
e 28 3
e 28 8
e 28 25
e 28 27
e 29 13
e 29 16
e 29 22
e 29 24
e 30 1
e 30 4
e 30 4
e 30 23
e 31 4
e 31 6
e 31 17
e 31 29
e 32 7
e 32 15
e 32 27
e 32 31
